p tw 97 110
1 2
2 13
3 4
4 5
5 6
6 7
7 8
7 86
8 9
9 10
10 11
11 12
12 14
13 24
14 15
15 16
16 17
17 18
18 19
19 20
19 30
20 21
21 22
22 23
22 27
23 25
24 35
25 26
26 16
27 28
28 29
29 16
30 31
31 32
32 33
32 6
33 34
34 36
35 46
36 37
37 38
38 39
38 73
39 40
40 41
40 45
41 42
42 43
43 44
44 45
45 47
46 57
47 48
48 49
49 50
50 51
50 71
51 52
52 53
52 55
53 54
54 55
54 61
55 56
56 58
57 68
58 59
59 60
60 61
61 62
62 63
63 64
64 65
65 66
66 67
66 71
67 69
68 79
69 70
70 71
71 72
72 73
73 74
74 75
74 83
75 76
75 78
76 77
77 81
78 80
79 90
80 81
81 82
82 83
83 84
84 85
85 6
86 87
87 88
87 93
88 89
89 91
89 93
90 3
91 92
92 93
93 94
94 95
95 96
96 97
